33D32945 STP File, STP Format Version 1.0

SECTION Comments
Name "shell_n14_d2_s2"
Problem "Euclidean Steiner Tree Problem"
Remark "Generated with STPGenerator. 2 dimensions."
END

SECTION Graph
Nodes 14
END

SECTION Coordinates
DD 0 0.5443917053 0.8388311339
DD 1 -0.8892297891 -0.4574607986
DD 2 0.4184972504 -0.9082180638
DD 3 0.5219453747 0.8529789129
DD 4 -0.4692240921 -0.8830791309
DD 5 0.9673394820 -0.2534843716
DD 6 0.8361534926 -0.5484955213
DD 7 0.8635657343 0.5042362765
DD 8 0.7408971907 -0.6716184578
DD 9 -0.2544029403 0.9670983114
DD 10 0.8871958253 -0.4613930728
DD 11 0.4305524851 0.9025655420
DD 12 0.8348626980 0.5504582414
DD 13 -0.9397523528 0.3418559864
END
